w = 29;
h = 29;
n = 24;
m = 46;
rect_size = [|
3, 3|
3, 4|
4, 3|
3, 5|
5, 3|
3, 6|
6, 3|
3, 7|
7, 3|
3, 8|
8, 3|
3, 9|
9, 3|
3, 10|
10, 3|
3, 11|
11, 3|
3, 15|
15, 3|
3, 18|
18, 3|
3, 20|
20, 3|
4, 3|
3, 4|
4, 4|
4, 5|
5, 4|
4, 6|
6, 4|
4, 7|
7, 4|
4, 9|
9, 4|
4, 15|
15, 4|
4, 18|
18, 4|
4, 20|
20, 4|
5, 4|
4, 5|
5, 8|
8, 5|
5, 17|
17, 5|];
rect_offset = [|
0, 0|
0, 0|
0, 0|
0, 0|
0, 0|
0, 0|
0, 0|
0, 0|
0, 0|
0, 0|
0, 0|
0, 0|
0, 0|
0, 0|
0, 0|
0, 0|
0, 0|
0, 0|
0, 0|
0, 0|
0, 0|
0, 0|
0, 0|
0, 0|
0, 0|
0, 0|
0, 0|
0, 0|
0, 0|
0, 0|
0, 0|
0, 0|
0, 0|
0, 0|
0, 0|
0, 0|
0, 0|
0, 0|
0, 0|
0, 0|
0, 0|
0, 0|
0, 0|
0, 0|
0, 0|
0, 0|];
shape = [{1}, {2}, {3}, {4}, {5}, {6}, {7}, {8}, {9}, {10}, {11}, {12}, {13}, {14}, {15}, {16}, {17}, {18}, {19}, {20}, {21}, {22}, {23}, {24}, {25}, {26}, {27}, {28}, {29}, {30}, {31}, {32}, {33}, {34}, {35}, {36}, {37}, {38}, {39}, {40}, {41}, {42}, {43}, {44}, {45}, {46}];
shapeind = [{1}, {2, 3}, {4, 5}, {6, 7}, {8, 9}, {10, 11}, {12, 13}, {14, 15}, {16, 17}, {18, 19}, {20, 21}, {22, 23}, {24, 25}, {26}, {27, 28}, {29, 30}, {31, 32}, {33, 34}, {35, 36}, {37, 38}, {39, 40}, {41, 42}, {43, 44}, {45, 46}];
ncopy = [1, 1, 1, 1, 1, 1, 1, 1, 1, 1, 1, 1, 1, 1, 1, 1, 1, 1, 1, 1, 1, 1, 1, 1];
c = 24;
